-1 -505 0
-503 -505 0
1 65 0
d 441 1 65 0
-505 0
65 0
1 0
-57 0
-441 0
-121 0
-9 0
449 0
49 0
113 0
225 0
45 0
401 0
17 0
161 0
337 0
-393 0
-345 0
-105 0
-489 0
-409 0
-457 0
-169 0
-25 0
-281 0
-21 0
-29 0
-321 0
0
